letting n =  10
letting blocks =  [[1, 1], [1, 7], [2, 1], [2, 10], [3, 1], [4, 5], [4, 7], [4, 10], [5, 1], [5, 5], [5, 6], [5, 8], [5, 9], [5, 10], [6, 5], [6, 6], [6, 7], [6, 10], [7, 2], [7, 3], [7, 6], [8, 1], [8, 3], [8, 5], [9, 1], [9, 3], [9, 4], [9, 6], [9, 7], [10, 9]]
